\ENCODING=ISO-8859-1
\Problem name: IloCplex

Minimize
 PERF: - 0.000977565 CAP11PU#8 - 0.003054195 CAP2ZPZ#11 - 0.0012404 CAP2ZTL#12
       - 0.0028404 CAPCSTL#13 - 0.00182494 CAPTHTL#16 - 0.001858651 CAPADPZ#18
       - 0.000577565 CAPBUPP#21 - 0.000166665 CAPBUTL#23
       - 0.000954195 CAPHBTL#29 - 0.000254195 CAPCSPP#32
       - 0.003700155 CAPDKLA#33 - 0.003881155 CAPELIC#35
       - 0.002354195 CAPELLA#38 - 0.00082494 CAPEPPP#39
       - 0.002054195 CAPEPPZ#40 - 0.000754195 CAPEPTL#42
       - 0.001954195 CAPFPPZ#43 - 0.000577565 CAP1DFP#44
       - 0.000577565 CAPHBP1#46 - 0.00122494 CAPHBRM#47
       - 0.000793977 CAPLATL#50 - 0.000977565 CAPM8MQ#52
       - 0.002354195 CAPM8P1#53 - 0.00042494 CAPMQP2#55
       - 0.000703477 CAPP1PZ#57 - 0.000677565 CAPP1RM#58
       - 0.0511467669999999 CAPP2RM#60 - 0.00322494 CAPP2TL#61
       - 0.001166665 CAPPPTL#63 - 0.0025404 CAP1DTL#65 - 0.000065347 CAP112Z#67
       - 0.000426855 CAP11M8#68 - 0.000065347 CAP11MQ#69
       - 0.000065347 CAP11P1#70 - 0.000065347 CAP11P2#71
       - 0.000233475 CAP11P3#72 - 0.000151985 CAP11PZ#73
       - 0.00032494 CAP2ZTH#74 - 0.000133 CAPADLA#75 - 0.00022494 CAPADP3#76
       - 0.000394847 CAPBUEP#77 - 0.000394847 CAPBUPU#78 - 0.000133 CAPCDCS#79
       - 0.000394847 CAPCHTH#80 - 0.000394847 CAPCSGR#81
       - 0.00022494 CAPCSLA#82 - 0.000394847 CAPEPRM#83 - 0.00032494 CAPFPPP#84
       - 0.000133 CAPFPTH#85 - 0.000133 CAPFPHA#86 - 0.00032494 CAPMQTL#87
       - 0.000133 CAPP2PP#88 + _eta_1#89 + _eta_2#90 + _eta_3#91 + _eta_4#92
       + _eta_5#93 + _eta_6#94 + _eta_7#95 + _eta_8#96 + _eta_9#97 + _eta_10#98
       + _eta_11#99 + _eta_12#100 + _eta_13#101 + _eta_14#102 + _eta_15#103
       + _eta_16#104 + _eta_17#105 + _eta_18#106 + _eta_19#107 + _eta_20#108
       + _eta_21#109 + _eta_22#110 + _eta_23#111 + _eta_24#112 + _eta_25#113
       + _eta_26#114 + _eta_27#115 + _eta_28#116 + _eta_29#117 + _eta_30#118
       + _eta_31#119 + _eta_32#120 + _eta_33#121 + _eta_34#122 + _eta_35#123
       + _eta_36#124 + _eta_37#125 + _eta_38#126 + _eta_39#127 + _eta_40#128
       + _eta_41#129 + _eta_42#130 + _eta_43#131 + _eta_44#132 + _eta_45#133
       + _eta_46#134 + _eta_47#135 + _eta_48#136 + _eta_49#137 + _eta_50#138
       + _eta_51#139 + _eta_52#140 + _eta_53#141 + _eta_54#142 + _eta_55#143
       + _eta_56#144 + _eta_57#145 + _eta_58#146 + _eta_59#147 + _eta_60#148
       + _eta_61#149 + _eta_62#150 + _eta_63#151 + _eta_64#152 + _eta_65#153
       + _eta_66#154 + _eta_67#155 + _eta_68#156 + _eta_69#157 + _eta_70#158
       + _eta_71#159 + _eta_72#160 + _eta_73#161 + _eta_74#162 + _eta_75#163
       + _eta_76#164 + _eta_77#165 + _eta_78#166 + _eta_79#167 + _eta_80#168
       + _eta_81#169 + _eta_82#170 + _eta_83#171 + _eta_84#172 + _eta_85#173
       + _eta_86#174 + _eta_87#175 + _eta_88#176 + _eta_89#177 + _eta_90#178
       + _eta_91#179 + _eta_92#180 + _eta_93#181 + _eta_94#182 + _eta_95#183
       + _eta_96#184 + _eta_97#185 + _eta_98#186 + _eta_99#187 + _eta_100#188
       + [ 0.0001 CAP11TH#0 ^2 + 0.0001 CAPCSTH#1 ^2 + 0.0001 CAP2ZCS#2 ^2
       + 0.0001 CAPM8TH#3 ^2 + 0.0001 CAPCSMQ#4 ^2 + 0.0001 CAPCSP1#5 ^2
       + 0.0001 CAPP2TH#6 ^2 + 0.0001 CAPP3TH#7 ^2 + 0.0001 CAP11PU#8 ^2
       + 0.0001 CAPCSPZ#9 ^2 + 0.0001 CAP11TL#10 ^2 + 0.0001 CAP2ZPZ#11 ^2
       + 0.0001 CAP2ZTL#12 ^2 + 0.0001 CAPCSTL#13 ^2 + 0.0001 CAPACTL#14 ^2
       + 0.0001 CAPADTL#15 ^2 + 0.0001 CAPTHTL#16 ^2 + 0.0001 CAPLATH#17 ^2
       + 0.0001 CAPADPZ#18 ^2 + 0.0001 CAPBUCS#19 ^2 + 0.0001 CAPCSEP#20 ^2
       + 0.0001 CAPBUPP#21 ^2 + 0.0001 CAPPUTL#22 ^2 + 0.0001 CAPBUTL#23 ^2
       + 0.0001 CAPCDTH#24 ^2 + 0.0001 CAPCHTL#25 ^2 + 0.0001 CAPCSFP#26 ^2
       + 0.0001 CAPGRTH#27 ^2 + 0.0001 CAPCSHB#28 ^2 + 0.0001 CAPHBTL#29 ^2
       + 0.0001 CAPCSM8#30 ^2 + 0.0001 CAPCSP3#31 ^2 + 0.0001 CAPCSPP#32 ^2
       + 0.0001 CAPDKLA#33 ^2 + 0.0001 CAPDKTH#34 ^2 + 0.0001 CAPELIC#35 ^2
       + 0.0001 CAPELTH#36 ^2 + 0.0001 CAPICTL#37 ^2 + 0.0001 CAPELLA#38 ^2
       + 0.0001 CAPEPPP#39 ^2 + 0.0001 CAPEPPZ#40 ^2 + 0.0001 CAPRMTL#41 ^2
       + 0.0001 CAPEPTL#42 ^2 + 0.0001 CAPFPPZ#43 ^2 + 0.0001 CAP1DFP#44 ^2
       + 0.0001 CAPHATL#45 ^2 + 0.0001 CAPHBP1#46 ^2 + 0.0001 CAPHBRM#47 ^2
       + 0.0001 CAPHRTH#48 ^2 + 0.0001 CAPICP2#49 ^2 + 0.0001 CAPLATL#50 ^2
       + 0.0001 CAPM1TL#51 ^2 + 0.0001 CAPM8MQ#52 ^2 + 0.0001 CAPM8P1#53 ^2
       + 0.0001 CAPM8TL#54 ^2 + 0.0001 CAPMQP2#55 ^2 + 0.0001 CAPP1P2#56 ^2
       + 0.0001 CAPP1PZ#57 ^2 + 0.0001 CAPP1RM#58 ^2 + 0.0001 CAPP1TL#59 ^2
       + 0.0001 CAPP2RM#60 ^2 + 0.0001 CAPP2TL#61 ^2 + 0.0001 CAPPPTH#62 ^2
       + 0.0001 CAPPPTL#63 ^2 + 0.0001 CAPPZTL#64 ^2 + 0.0001 CAP1DTL#65 ^2
       + 0.0001 CAPCSP2#66 ^2 + 0.0001 CAP112Z#67 ^2 + 0.0001 CAP11M8#68 ^2
       + 0.0001 CAP11MQ#69 ^2 + 0.0001 CAP11P1#70 ^2 + 0.0001 CAP11P2#71 ^2
       + 0.0001 CAP11P3#72 ^2 + 0.0001 CAP11PZ#73 ^2 + 0.0001 CAP2ZTH#74 ^2
       + 0.0001 CAPADLA#75 ^2 + 0.0001 CAPADP3#76 ^2 + 0.0001 CAPBUEP#77 ^2
       + 0.0001 CAPBUPU#78 ^2 + 0.0001 CAPCDCS#79 ^2 + 0.0001 CAPCHTH#80 ^2
       + 0.0001 CAPCSGR#81 ^2 + 0.0001 CAPCSLA#82 ^2 + 0.0001 CAPEPRM#83 ^2
       + 0.0001 CAPFPPP#84 ^2 + 0.0001 CAPFPTH#85 ^2 + 0.0001 CAPFPHA#86 ^2
       + 0.0001 CAPMQTL#87 ^2 + 0.0001 CAPP2PP#88 ^2 ] / 2 + 13.5889817811587
Subject To
 BUDGET: CAP11TH#0 + CAPCSTH#1 + CAP2ZCS#2 + CAPM8TH#3 + CAPCSMQ#4 + CAPCSP1#5
         + CAPP2TH#6 + CAPP3TH#7 + CAP11PU#8 + CAPCSPZ#9 + CAP11TL#10
         + CAP2ZPZ#11 + CAP2ZTL#12 + CAPCSTL#13 + CAPACTL#14 + CAPADTL#15
         + CAPTHTL#16 + CAPLATH#17 + CAPADPZ#18 + CAPBUCS#19 + CAPCSEP#20
         + CAPBUPP#21 + CAPPUTL#22 + CAPBUTL#23 + CAPCDTH#24 + CAPCHTL#25
         + CAPCSFP#26 + CAPGRTH#27 + CAPCSHB#28 + CAPHBTL#29 + CAPCSM8#30
         + CAPCSP3#31 + CAPCSPP#32 + CAPDKLA#33 + CAPDKTH#34 + CAPELIC#35
         + CAPELTH#36 + CAPICTL#37 + CAPELLA#38 + CAPEPPP#39 + CAPEPPZ#40
         + CAPRMTL#41 + CAPEPTL#42 + CAPFPPZ#43 + CAP1DFP#44 + CAPHATL#45
         + CAPHBP1#46 + CAPHBRM#47 + CAPHRTH#48 + CAPICP2#49 + CAPLATL#50
         + CAPM1TL#51 + CAPM8MQ#52 + CAPM8P1#53 + CAPM8TL#54 + CAPMQP2#55
         + CAPP1P2#56 + CAPP1PZ#57 + CAPP1RM#58 + CAPP1TL#59 + CAPP2RM#60
         + CAPP2TL#61 + CAPPPTH#62 + CAPPPTL#63 + CAPPZTL#64 + CAP1DTL#65
         + CAPCSP2#66 + CAP112Z#67 + CAP11M8#68 + CAP11MQ#69 + CAP11P1#70
         + CAP11P2#71 + CAP11P3#72 + CAP11PZ#73 + CAP2ZTH#74 + CAPADLA#75
         + CAPADP3#76 + CAPBUEP#77 + CAPBUPU#78 + CAPCDCS#79 + CAPCHTH#80
         + CAPCSGR#81 + CAPCSLA#82 + CAPEPRM#83 + CAPFPPP#84 + CAPFPTH#85
         + CAPFPHA#86 + CAPMQTL#87 + CAPP2PP#88 <= 1008
Bounds
-99999999999 <= _eta_1#89 <= 99999999999
-99999999999 <= _eta_2#90 <= 99999999999
-99999999999 <= _eta_3#91 <= 99999999999
-99999999999 <= _eta_4#92 <= 99999999999
-99999999999 <= _eta_5#93 <= 99999999999
-99999999999 <= _eta_6#94 <= 99999999999
-99999999999 <= _eta_7#95 <= 99999999999
-99999999999 <= _eta_8#96 <= 99999999999
-99999999999 <= _eta_9#97 <= 99999999999
-99999999999 <= _eta_10#98 <= 99999999999
-99999999999 <= _eta_11#99 <= 99999999999
-99999999999 <= _eta_12#100 <= 99999999999
-99999999999 <= _eta_13#101 <= 99999999999
-99999999999 <= _eta_14#102 <= 99999999999
-99999999999 <= _eta_15#103 <= 99999999999
-99999999999 <= _eta_16#104 <= 99999999999
-99999999999 <= _eta_17#105 <= 99999999999
-99999999999 <= _eta_18#106 <= 99999999999
-99999999999 <= _eta_19#107 <= 99999999999
-99999999999 <= _eta_20#108 <= 99999999999
-99999999999 <= _eta_21#109 <= 99999999999
-99999999999 <= _eta_22#110 <= 99999999999
-99999999999 <= _eta_23#111 <= 99999999999
-99999999999 <= _eta_24#112 <= 99999999999
-99999999999 <= _eta_25#113 <= 99999999999
-99999999999 <= _eta_26#114 <= 99999999999
-99999999999 <= _eta_27#115 <= 99999999999
-99999999999 <= _eta_28#116 <= 99999999999
-99999999999 <= _eta_29#117 <= 99999999999
-99999999999 <= _eta_30#118 <= 99999999999
-99999999999 <= _eta_31#119 <= 99999999999
-99999999999 <= _eta_32#120 <= 99999999999
-99999999999 <= _eta_33#121 <= 99999999999
-99999999999 <= _eta_34#122 <= 99999999999
-99999999999 <= _eta_35#123 <= 99999999999
-99999999999 <= _eta_36#124 <= 99999999999
-99999999999 <= _eta_37#125 <= 99999999999
-99999999999 <= _eta_38#126 <= 99999999999
-99999999999 <= _eta_39#127 <= 99999999999
-99999999999 <= _eta_40#128 <= 99999999999
-99999999999 <= _eta_41#129 <= 99999999999
-99999999999 <= _eta_42#130 <= 99999999999
-99999999999 <= _eta_43#131 <= 99999999999
-99999999999 <= _eta_44#132 <= 99999999999
-99999999999 <= _eta_45#133 <= 99999999999
-99999999999 <= _eta_46#134 <= 99999999999
-99999999999 <= _eta_47#135 <= 99999999999
-99999999999 <= _eta_48#136 <= 99999999999
-99999999999 <= _eta_49#137 <= 99999999999
-99999999999 <= _eta_50#138 <= 99999999999
-99999999999 <= _eta_51#139 <= 99999999999
-99999999999 <= _eta_52#140 <= 99999999999
-99999999999 <= _eta_53#141 <= 99999999999
-99999999999 <= _eta_54#142 <= 99999999999
-99999999999 <= _eta_55#143 <= 99999999999
-99999999999 <= _eta_56#144 <= 99999999999
-99999999999 <= _eta_57#145 <= 99999999999
-99999999999 <= _eta_58#146 <= 99999999999
-99999999999 <= _eta_59#147 <= 99999999999
-99999999999 <= _eta_60#148 <= 99999999999
-99999999999 <= _eta_61#149 <= 99999999999
-99999999999 <= _eta_62#150 <= 99999999999
-99999999999 <= _eta_63#151 <= 99999999999
-99999999999 <= _eta_64#152 <= 99999999999
-99999999999 <= _eta_65#153 <= 99999999999
-99999999999 <= _eta_66#154 <= 99999999999
-99999999999 <= _eta_67#155 <= 99999999999
-99999999999 <= _eta_68#156 <= 99999999999
-99999999999 <= _eta_69#157 <= 99999999999
-99999999999 <= _eta_70#158 <= 99999999999
-99999999999 <= _eta_71#159 <= 99999999999
-99999999999 <= _eta_72#160 <= 99999999999
-99999999999 <= _eta_73#161 <= 99999999999
-99999999999 <= _eta_74#162 <= 99999999999
-99999999999 <= _eta_75#163 <= 99999999999
-99999999999 <= _eta_76#164 <= 99999999999
-99999999999 <= _eta_77#165 <= 99999999999
-99999999999 <= _eta_78#166 <= 99999999999
-99999999999 <= _eta_79#167 <= 99999999999
-99999999999 <= _eta_80#168 <= 99999999999
-99999999999 <= _eta_81#169 <= 99999999999
-99999999999 <= _eta_82#170 <= 99999999999
-99999999999 <= _eta_83#171 <= 99999999999
-99999999999 <= _eta_84#172 <= 99999999999
-99999999999 <= _eta_85#173 <= 99999999999
-99999999999 <= _eta_86#174 <= 99999999999
-99999999999 <= _eta_87#175 <= 99999999999
-99999999999 <= _eta_88#176 <= 99999999999
-99999999999 <= _eta_89#177 <= 99999999999
-99999999999 <= _eta_90#178 <= 99999999999
-99999999999 <= _eta_91#179 <= 99999999999
-99999999999 <= _eta_92#180 <= 99999999999
-99999999999 <= _eta_93#181 <= 99999999999
-99999999999 <= _eta_94#182 <= 99999999999
-99999999999 <= _eta_95#183 <= 99999999999
-99999999999 <= _eta_96#184 <= 99999999999
-99999999999 <= _eta_97#185 <= 99999999999
-99999999999 <= _eta_98#186 <= 99999999999
-99999999999 <= _eta_99#187 <= 99999999999
-99999999999 <= _eta_100#188 <= 99999999999
End
